p cnf 12 50 
-8 6 -5 0
12 -7 -1 0
10 -7 5 0
-3 12 -10 0
-4 1 -8 0
-7 -2 4 0
-3 4 -2 0
-5 -11 -9 0
2 -3 12 0
-3 -7 1 0
11 -3 -12 0
8 12 -2 0
-3 6 -2 0
-7 11 8 0
8 -4 11 0
-4 -3 -5 0
3 -12 8 0
9 -11 -6 0
-3 -4 6 0
4 -2 10 0
-9 -1 -12 0
11 -8 1 0
10 -5 -11 0
-9 1 -12 0
3 -11 -10 0
-9 -10 -2 0
7 4 2 0
-8 12 -4 0
6 -1 -7 0
-10 4 6 0
12 -7 8 0
-11 -5 -12 0
12 -1 -11 0
9 7 -3 0
2 5 -11 0
7 -3 -5 0
5 -6 12 0
3 -12 1 0
5 12 6 0
12 5 8 0
2 -9 -11 0
-1 7 11 0
-2 1 -7 0
-12 -11 -10 0
-4 -6 -12 0
7 -6 11 0
11 -7 -9 0
-6 -2 -3 0
-2 -10 -7 0
-4 -1 2 0
